0 199 
1 199 
2 200 
3 198 
4 202 
5 199 
6 200 
7 196 
8 192 
9 191 
10 190 
11 192 
12 193 
13 190 
14 187 
15 190 
16 188 
17 187 
18 186 
19 184 
20 186 
21 185 
22 183 
23 176 
24 174 
25 176 
26 169 
27 164 
28 163 
29 158 
30 156 
31 154 
32 147 
33 143 
34 141 
35 141 
36 138 
37 136 
38 137 
39 136 
40 133 
41 131 
42 133 
43 139 
44 136 
45 135 
46 139 
47 137 
48 133 
49 138 
50 137 
51 135 
52 130 
53 128 
54 124 
55 118 
56 120 
57 122 
58 125 
59 124 
60 123 
61 126 
62 125 
63 119 
64 115 
65 111 
66 110 
67 107 
68 107 
69 104 
70 107 
71 102 
72 102 
73 98 
74 99 
75 98 
76 99 
77 96 
78 90 
79 87 
80 86 
81 85 
82 83 
83 80 
84 77 
85 80 
86 70 
87 73 
88 68 
89 69 
90 65 
91 59 
92 56 
93 54 
94 51 
95 54 
96 49 
97 45 
98 38 
99 37 
100 38 
101 37 
102 33 
103 31 
104 30 
105 27 
106 27 
107 26 
108 24 
109 27 
110 26 
111 27 
112 22 
113 23 
114 23 
115 18 
116 17 
117 16 
118 16 
119 15 
120 19 
121 15 
122 11 
123 11 
124 12 
125 12 
126 10 
127 8 
128 6 
129 5 
130 5 
131 5 
132 4 
133 3 
134 2 
135 2 
136 1 
137 0 
138 0 

